max_width = 33;
n_blocks = 23;
width = [7, 3, 3, 3, 4, 3, 3, 4, 3, 3, 4, 4, 3, 3, 3, 3, 4, 3, 3, 4, 3, 4, 3];
height = [33, 33, 30, 24, 17, 17, 15, 14, 14, 13, 12, 10, 10, 9, 8, 7, 6, 6, 5, 4, 4, 3, 3];
